320	52	4	262	
14	13	13	12

0	0	0	0	0	0	4	1	2	3	4
1	9	7	8	5	5	1	5
2	10	4	4	1	9	1	6
3	5	5	6	8	3	1	23
4	3	6	5	2	9	1	17
5	6	8	4	10	3	1	7
6	2	7	1	9	7	1	8
7	8	8	5	1	10	1	10
8	5	10	10	3	2	1	9
9	8	8	10	1	10	1	12
10	5	2	10	1	5	1	11
11	6	10	10	5	1	1	14
12	9	5	10	7	10	1	13
13	10	8	6	5	10	1	25
14	1	8	9	3	3	1	15
15	5	6	7	8	5	1	16
16	5	3	7	6	9	1	18
17	10	8	10	5	1	1	40
18	2	3	5	1	8	1	19
19	2	10	2	5	4	1	20
20	2	6	3	2	10	1	21
21	5	6	6	10	10	1	22
22	10	2	2	4	5	2	23	34
23	9	8	7	6	4	1	24
24	2	3	5	6	6	1	26
25	7	3	2	9	4	1	28
26	6	7	4	4	5	1	27
27	10	7	7	4	5	1	29
28	6	2	2	7	3	1	30
29	2	4	3	1	3	1	31
30	3	4	8	8	2	1	31
31	3	9	10	9	3	1	32
32	10	8	8	7	10	1	33
33	3	2	3	10	7	1	35
34	9	6	3	9	10	1	36
35	8	3	4	2	7	2	36	46
36	4	1	7	2	5	1	37
37	1	7	5	3	10	1	38
38	10	2	2	7	10	1	39
39	5	10	8	4	10	1	40
40	9	9	8	8	10	1	41
41	8	6	7	1	8	1	42
42	9	10	4	2	8	1	43
43	8	5	7	6	3	2	44	48
44	2	10	10	4	8	1	45
45	4	6	1	2	1	1	47
46	6	9	1	8	8	1	48
47	7	2	3	6	8	1	49
48	5	7	1	1	7	1	50
49	10	8	6	8	9	1	51
50	5	4	1	10	7	1	51
51	0	0	0	0	0	0
